words_hard_train/6078.qaiger
aag 172 24 0 1 148
2
4
8
14
20
28
30
36
38
46
48
110
112
150
158
160
200
208
210
252
260
262
300
302
344
6 2 4
10 8 4
12 7 11
16 14 4
18 12 17
22 19 20
24 18 21
26 23 25
32 29 31
34 33 31
40 37 39
42 41 39
44 35 43
50 46 49
52 32 40
54 51 52
56 50 53
58 55 57
60 29 38
62 61 31
64 63 43
66 59 65
68 58 64
70 67 69
72 45 70
74 44 71
76 73 75
78 13 14
80 12 15
82 79 81
84 11 3
86 10 2
88 85 87
90 88 42
92 34 8
94 91 93
96 89 43
98 95 97
100 83 99
102 76 101
104 82 98
106 103 105
108 26 107
114 110 113
116 52 47
118 116 49
120 114 119
122 115 118
124 121 123
126 52 48
128 69 127
130 125 128
132 124 129
134 131 133
136 75 134
138 74 135
140 137 139
142 109 141
144 27 106
146 143 145
148 25 4
152 148 150
154 149 151
156 153 155
162 158 161
164 118 111
166 164 113
168 162 167
170 163 166
172 169 171
174 118 112
176 133 175
178 173 176
180 172 177
182 179 181
184 139 182
186 138 183
188 185 187
190 156 188
192 147 191
194 157 189
196 193 195
198 155 4
202 199 201
204 198 200
206 203 205
212 208 211
214 166 159
216 214 161
218 212 216
220 213 217
222 219 221
224 166 160
226 181 225
228 222 226
230 223 227
232 229 231
234 187 232
236 186 233
238 235 237
240 206 238
242 197 241
244 207 239
246 243 245
248 200 4
250 249 199
254 251 252
256 250 253
258 255 257
264 260 263
266 216 209
268 266 211
270 264 268
272 265 269
274 271 273
276 216 210
278 231 277
280 274 278
282 275 279
284 281 283
286 237 284
288 236 285
290 287 289
292 258 290
294 247 293
296 259 291
298 295 297
304 300 303
306 268 261
308 306 263
310 305 308
312 304 309
314 311 313
316 268 262
318 317 283
320 315 319
322 314 318
324 321 323
326 298 325
328 256 4
330 329 288
332 326 331
334 328 289
336 335 327
338 333 337
340 299 324
342 340 331
344 339 343
i0 2 y2[1]
i1 2 y2[7]
i2 2 y2[0]
i3 2 y2[2]
i4 2 y2[3]
i5 1 x1[0]
i6 2 y1[0]
i7 1 x1[1]
i8 2 y1[1]
i9 1 x1[2]
i10 2 y1[2]
i11 1 x1[3]
i12 2 y1[3]
i13 2 y2[4]
i14 1 x1[4]
i15 2 y1[4]
i16 2 y2[5]
i17 1 x1[5]
i18 2 y1[5]
i19 2 y2[6]
i20 1 x1[6]
i21 2 y1[6]
i22 1 x1[7]
i23 2 y1[7]
o0 bv[0]
c
simplified
  >=
    abs
      2 y2
    subtract
      2 y1
      or
        2 y1
        1 x1
