words_hard_train/6078.qaiger.qdimacs
p cnf 172 445
a 130 104 14 79 18 23 150 55 0
e 1 2 3 4 5 6 7 8 9 10 11 12 13 15 16 17 19 20 21 22 24 25 26 27 28 29 30 31 32 33 34 35 36 37 38 39 40 41 42 43 44 45 46 47 48 49 50 51 52 53 54 56 57 58 59 60 61 62 63 64 65 66 67 68 69 70 71 72 73 74 75 76 77 78 80 81 82 83 84 85 86 87 88 89 90 91 92 93 94 95 96 97 98 99 100 101 102 103 105 106 107 108 109 110 111 112 113 114 115 116 117 118 119 120 121 122 123 124 125 126 127 128 129 131 132 133 134 135 136 137 138 139 140 141 142 143 144 145 146 147 148 149 151 152 153 154 155 156 157 158 159 160 161 162 163 164 165 166 167 168 169 170 171 172 0
-1 -2 3 0
1 -3 0
2 -3 0
-4 -2 5 0
4 -5 0
2 -5 0
3 5 6 0
-3 -6 0
-5 -6 0
-7 -2 8 0
7 -8 0
2 -8 0
-6 8 9 0
6 -9 0
-8 -9 0
9 -10 11 0
-9 -11 0
10 -11 0
-9 10 12 0
9 -12 0
-10 -12 0
11 12 13 0
-11 -13 0
-12 -13 0
14 15 16 0
-14 -16 0
-15 -16 0
16 15 17 0
-16 -17 0
-15 -17 0
18 19 20 0
-18 -20 0
-19 -20 0
20 19 21 0
-20 -21 0
-19 -21 0
17 21 22 0
-17 -22 0
-21 -22 0
-23 24 25 0
23 -25 0
-24 -25 0
-16 -20 26 0
16 -26 0
20 -26 0
25 -26 27 0
-25 -27 0
26 -27 0
-25 26 28 0
25 -28 0
-26 -28 0
27 28 29 0
-27 -29 0
-28 -29 0
14 -19 30 0
-14 -30 0
19 -30 0
30 15 31 0
-30 -31 0
-15 -31 0
31 21 32 0
-31 -32 0
-21 -32 0
29 32 33 0
-29 -33 0
-32 -33 0
-29 -32 34 0
29 -34 0
32 -34 0
33 34 35 0
-33 -35 0
-34 -35 0
22 -35 36 0
-22 -36 0
35 -36 0
-22 35 37 0
22 -37 0
-35 -37 0
36 37 38 0
-36 -38 0
-37 -38 0
6 -7 39 0
-6 -39 0
7 -39 0
-6 7 40 0
6 -40 0
-7 -40 0
39 40 41 0
-39 -41 0
-40 -41 0
5 1 42 0
-5 -42 0
-1 -42 0
-5 -1 43 0
5 -43 0
1 -43 0
42 43 44 0
-42 -44 0
-43 -44 0
-44 -21 45 0
44 -45 0
21 -45 0
-17 -4 46 0
17 -46 0
4 -46 0
45 46 47 0
-45 -47 0
-46 -47 0
44 21 48 0
-44 -48 0
-21 -48 0
47 48 49 0
-47 -49 0
-48 -49 0
41 49 50 0
-41 -50 0
-49 -50 0
-38 50 51 0
38 -51 0
-50 -51 0
-41 -49 52 0
41 -52 0
49 -52 0
51 52 53 0
-51 -53 0
-52 -53 0
-13 53 54 0
13 -54 0
-53 -54 0
-55 56 57 0
55 -57 0
-56 -57 0
-26 23 58 0
26 -58 0
-23 -58 0
-58 24 59 0
58 -59 0
-24 -59 0
-57 59 60 0
57 -60 0
-59 -60 0
57 -59 61 0
-57 -61 0
59 -61 0
60 61 62 0
-60 -62 0
-61 -62 0
-26 -24 63 0
26 -63 0
24 -63 0
34 63 64 0
-34 -64 0
-63 -64 0
62 -64 65 0
-62 -65 0
64 -65 0
-62 64 66 0
62 -66 0
-64 -66 0
65 66 67 0
-65 -67 0
-66 -67 0
37 -67 68 0
-37 -68 0
67 -68 0
-37 67 69 0
37 -69 0
-67 -69 0
68 69 70 0
-68 -70 0
-69 -70 0
54 70 71 0
-54 -71 0
-70 -71 0
13 -53 72 0
-13 -72 0
53 -72 0
71 72 73 0
-71 -73 0
-72 -73 0
12 -2 74 0
-12 -74 0
2 -74 0
-74 -75 76 0
74 -76 0
75 -76 0
74 75 77 0
-74 -77 0
-75 -77 0
76 77 78 0
-76 -78 0
-77 -78 0
-79 80 81 0
79 -81 0
-80 -81 0
-59 55 82 0
59 -82 0
-55 -82 0
-82 56 83 0
82 -83 0
-56 -83 0
-81 83 84 0
81 -84 0
-83 -84 0
81 -83 85 0
-81 -85 0
83 -85 0
84 85 86 0
-84 -86 0
-85 -86 0
-59 -56 87 0
59 -87 0
56 -87 0
66 87 88 0
-66 -88 0
-87 -88 0
86 -88 89 0
-86 -89 0
88 -89 0
-86 88 90 0
86 -90 0
-88 -90 0
89 90 91 0
-89 -91 0
-90 -91 0
69 -91 92 0
-69 -92 0
91 -92 0
-69 91 93 0
69 -93 0
-91 -93 0
92 93 94 0
-92 -94 0
-93 -94 0
-78 -94 95 0
78 -95 0
94 -95 0
73 95 96 0
-73 -96 0
-95 -96 0
78 94 97 0
-78 -97 0
-94 -97 0
96 97 98 0
-96 -98 0
-97 -98 0
77 -2 99 0
-77 -99 0
2 -99 0
99 100 101 0
-99 -101 0
-100 -101 0
-99 -100 102 0
99 -102 0
100 -102 0
101 102 103 0
-101 -103 0
-102 -103 0
-104 105 106 0
104 -106 0
-105 -106 0
-83 79 107 0
83 -107 0
-79 -107 0
-107 80 108 0
107 -108 0
-80 -108 0
-106 -108 109 0
106 -109 0
108 -109 0
106 108 110 0
-106 -110 0
-108 -110 0
109 110 111 0
-109 -111 0
-110 -111 0
-83 -80 112 0
83 -112 0
80 -112 0
90 112 113 0
-90 -113 0
-112 -113 0
-111 -113 114 0
111 -114 0
113 -114 0
111 113 115 0
-111 -115 0
-113 -115 0
114 115 116 0
-114 -116 0
-115 -116 0
93 -116 117 0
-93 -117 0
116 -117 0
-93 116 118 0
93 -118 0
-116 -118 0
117 118 119 0
-117 -119 0
-118 -119 0
-103 -119 120 0
103 -120 0
119 -120 0
98 120 121 0
-98 -121 0
-120 -121 0
103 119 122 0
-103 -122 0
-119 -122 0
121 122 123 0
-121 -123 0
-122 -123 0
-100 -2 124 0
100 -124 0
2 -124 0
124 99 125 0
-124 -125 0
-99 -125 0
125 -126 127 0
-125 -127 0
126 -127 0
-125 126 128 0
125 -128 0
-126 -128 0
127 128 129 0
-127 -129 0
-128 -129 0
-130 131 132 0
130 -132 0
-131 -132 0
-108 104 133 0
108 -133 0
-104 -133 0
-133 105 134 0
133 -134 0
-105 -134 0
-132 -134 135 0
132 -135 0
134 -135 0
132 134 136 0
-132 -136 0
-134 -136 0
135 136 137 0
-135 -137 0
-136 -137 0
-108 -105 138 0
108 -138 0
105 -138 0
115 138 139 0
-115 -139 0
-138 -139 0
-137 -139 140 0
137 -140 0
139 -140 0
137 139 141 0
-137 -141 0
-139 -141 0
140 141 142 0
-140 -142 0
-141 -142 0
118 -142 143 0
-118 -143 0
142 -143 0
-118 142 144 0
118 -144 0
-142 -144 0
143 144 145 0
-143 -145 0
-144 -145 0
-129 -145 146 0
129 -146 0
145 -146 0
123 146 147 0
-123 -147 0
-146 -147 0
129 145 148 0
-129 -148 0
-145 -148 0
147 148 149 0
-147 -149 0
-148 -149 0
-150 151 152 0
150 -152 0
-151 -152 0
-134 130 153 0
134 -153 0
-130 -153 0
-153 131 154 0
153 -154 0
-131 -154 0
152 -154 155 0
-152 -155 0
154 -155 0
-152 154 156 0
152 -156 0
-154 -156 0
155 156 157 0
-155 -157 0
-156 -157 0
-134 -131 158 0
134 -158 0
131 -158 0
158 141 159 0
-158 -159 0
-141 -159 0
157 159 160 0
-157 -160 0
-159 -160 0
-157 -159 161 0
157 -161 0
159 -161 0
160 161 162 0
-160 -162 0
-161 -162 0
-149 162 163 0
149 -163 0
-162 -163 0
-128 -2 164 0
128 -164 0
2 -164 0
164 -144 165 0
-164 -165 0
144 -165 0
-163 165 166 0
163 -166 0
-165 -166 0
-164 144 167 0
164 -167 0
-144 -167 0
167 163 168 0
-167 -168 0
-163 -168 0
166 168 169 0
-166 -169 0
-168 -169 0
149 -162 170 0
-149 -170 0
162 -170 0
-170 165 171 0
170 -171 0
-165 -171 0
169 171 172 0
-169 -172 0
-171 -172 0
172 0
